H4 C1 
1.0
9.7064861381000007e+00 0.0000000000000000e+00 0.0000000000000000e+00 
2.4438361600000000e-02 9.8210672973000008e+00 0.0000000000000000e+00 
-9.8025753300000004e-02 -5.2623482100000001e-02 9.8829666736000004e+00 
H C 
4 1 
Cartesian
   4.6525500000    3.4967900000    4.4277700000
   3.9235900000    4.7445000000    4.9677200000
   5.1064400000    5.6380100000    4.4342700000
   5.7164900000    4.3886700000    3.7612500000
   4.8465900000    4.5690000000    4.3950500000
